NAME : gr48.5700.tour
COMMENT : Cost = 0_5700
COMMENT : Found by LKH [Keld Helsgaun] Thu Nov 16 16:26:26 2017
TYPE : TOUR
DIMENSION : 52
TOUR_SECTION
1
13
49
7
50
28
46
18
26
6
36
14
9
21
17
27
32
22
8
33
5
31
12
10
15
24
37
47
43
45
2
40
39
42
35
20
38
30
4
19
3
25
23
34
41
44
51
48
11
16
52
29
-1
EOF
